unsat
(define-fun inv ((s (_ BitVec 4)) (t (_ BitVec 4))) (_ BitVec 4) (bvnot (bvshl #b0100 s)))
0.18user 0.00system 0:00.19elapsed 100%CPU (0avgtext+0avgdata 30744maxresident)k
0inputs+8outputs (0major+2263minor)pagefaults 0swaps
